% Logging successfully configured
%%%mzn-stat: initTime=0.006562942
%%%mzn-stat: objective=368
%%%mzn-stat: nodes=450
%%%mzn-stat: restarts=0
%%%mzn-stat: peakDepth=288
%%%mzn-stat: solveTime=0.05457143
%%%mzn-stat: variables=651
%%%mzn-stat: propagators=440
%%%mzn-stat: failures=127
%%%mzn-stat: propagations=6528
%%%mzn-stat: nogoods=127
%%%mzn-stat: numAtomicConstraintsPropagated=0
%%%mzn-stat: allDifferentNumber1PropagationsTotal=710
%%%mzn-stat: allDifferentNumber1PropagationsThatFoundConflict=7
%%%mzn-stat: allDifferentNumber1PropagationsThatPruned=462
%%%mzn-stat: allDifferentNumber1TotalValuesPruned=1764
%%%mzn-stat: allDifferentNumber1TotalHallSetSizeConflict=34
%%%mzn-stat: allDifferentNumber1NumberOfConflicts=7
%%%mzn-stat: allDifferentNumber1MaxHallSetSizeConflict=14
%%%mzn-stat: allDifferentNumber1TotalPruningHallSetSize=6481
%%%mzn-stat: allDifferentNumber1NumberOfPruningExplanations=1764
%%%mzn-stat: allDifferentNumber1MaxPruningHallSetSize=31
%%%mzn-stat: allDifferentNumber1TotalFixedEdgesAtConflict=259
%%%mzn-stat: allDifferentNumber1TotalVarsInvolvedInPruning=1471
%%%mzn-stat: allDifferentNumber1MaxValuesPrunedFromSingleVar=3
%%%mzn-stat: allDifferentNumber1TotalSccSizeAtPruning=3588
%%%mzn-stat: allDifferentNumber1NumberOfSccPruningCalls=462
%%%mzn-stat: circuitNumber2PropagationsThatFoundConflict=118
%%%mzn-stat: circuitNumber2TotalFixedEdgesAtConflict=5017
%%%mzn-stat: circuitNumber2NumberOfConflicts=118
%%%mzn-stat: circuitNumber2PropagationsThatPruned=122
%%%mzn-stat: circuitNumber2PropagationsTotal=461
%%%mzn-stat: AverageConflictSize=22.346456692913385
%%%mzn-stat: NumUnitNogoodsLearned=0
%%%mzn-stat: AverageLearnedNogoodLength=25.165354330708663
%%%mzn-stat: AverageBacktrackAmount=0
%%%mzn-stat: AverageLbd=18.834645669291337
%%%mzn-stat: 2AutonomousSearchNumBackupCalled=260
%%%mzn-stat: 2AutonomousSearchNumPredicatesRemoved=0
%%%mzn-stat: 2AutonomousSearchNumCalls=261
%%%mzn-stat: 2AutonomousSearchNumPredicatesAdded=1346
%%%mzn-stat: 2AutonomousSearchAverageSizeOfHeap=5.157088122605364
%%%mzn-stat: 2AutonomousSearchNumAssignedPredicatesEncountered=1346
%%%mzn-stat-end
maxleg = 368;
succ = array1d(1..50,[2, 12, 5, 6, 22, 3, 11, 4, 8, 14, 9, 13, 28, 19, 7, 15, 32, 16, 23, 24, 33, 48, 40, 35, 18, 27, 29, 46, 41, 25, 50, 20, 36, 39, 31, 1, 21, 26, 47, 49, 44, 10, 42, 37, 38, 43, 17, 45, 34, 30]);
% time elapsed: 3.24 s
----------
%%%mzn-stat: initTime=0.006562942
%%%mzn-stat: objective=356
%%%mzn-stat: nodes=782
%%%mzn-stat: restarts=0
%%%mzn-stat: peakDepth=297
%%%mzn-stat: solveTime=0.073178174
%%%mzn-stat: variables=651
%%%mzn-stat: propagators=440
%%%mzn-stat: failures=160
%%%mzn-stat: propagations=8656
%%%mzn-stat: nogoods=160
%%%mzn-stat: numAtomicConstraintsPropagated=0
%%%mzn-stat: allDifferentNumber1PropagationsTotal=950
%%%mzn-stat: allDifferentNumber1PropagationsThatFoundConflict=7
%%%mzn-stat: allDifferentNumber1PropagationsThatPruned=614
%%%mzn-stat: allDifferentNumber1TotalValuesPruned=2392
%%%mzn-stat: allDifferentNumber1TotalHallSetSizeConflict=34
%%%mzn-stat: allDifferentNumber1NumberOfConflicts=7
%%%mzn-stat: allDifferentNumber1MaxHallSetSizeConflict=14
%%%mzn-stat: allDifferentNumber1TotalPruningHallSetSize=9467
%%%mzn-stat: allDifferentNumber1NumberOfPruningExplanations=2392
%%%mzn-stat: allDifferentNumber1MaxPruningHallSetSize=31
%%%mzn-stat: allDifferentNumber1TotalFixedEdgesAtConflict=259
%%%mzn-stat: allDifferentNumber1TotalVarsInvolvedInPruning=2029
%%%mzn-stat: allDifferentNumber1MaxValuesPrunedFromSingleVar=3
%%%mzn-stat: allDifferentNumber1TotalSccSizeAtPruning=5093
%%%mzn-stat: allDifferentNumber1NumberOfSccPruningCalls=614
%%%mzn-stat: circuitNumber2PropagationsThatFoundConflict=141
%%%mzn-stat: circuitNumber2TotalFixedEdgesAtConflict=5910
%%%mzn-stat: circuitNumber2NumberOfConflicts=141
%%%mzn-stat: circuitNumber2PropagationsThatPruned=158
%%%mzn-stat: circuitNumber2PropagationsTotal=606
%%%mzn-stat: AverageConflictSize=20.59375
%%%mzn-stat: NumUnitNogoodsLearned=0
%%%mzn-stat: AverageLearnedNogoodLength=27.1
%%%mzn-stat: AverageBacktrackAmount=0
%%%mzn-stat: AverageLbd=19.00625
%%%mzn-stat: 2AutonomousSearchNumBackupCalled=527
%%%mzn-stat: 2AutonomousSearchNumPredicatesRemoved=0
%%%mzn-stat: 2AutonomousSearchNumCalls=529
%%%mzn-stat: 2AutonomousSearchNumPredicatesAdded=2362
%%%mzn-stat: 2AutonomousSearchAverageSizeOfHeap=5.24007561436673
%%%mzn-stat: 2AutonomousSearchNumAssignedPredicatesEncountered=2772
%%%mzn-stat-end
maxleg = 356;
succ = array1d(1..50,[2, 12, 5, 6, 45, 3, 11, 4, 8, 14, 9, 13, 28, 19, 7, 15, 32, 16, 23, 24, 33, 27, 40, 35, 18, 48, 29, 46, 41, 25, 50, 20, 36, 39, 31, 1, 21, 26, 47, 49, 44, 10, 42, 37, 38, 43, 17, 22, 34, 30]);
% time elapsed: 3.24 s
----------
%%%mzn-stat: initTime=0.006562942
%%%mzn-stat: objective=331
%%%mzn-stat: nodes=1099
%%%mzn-stat: restarts=0
%%%mzn-stat: peakDepth=297
%%%mzn-stat: solveTime=0.098386683
%%%mzn-stat: variables=651
%%%mzn-stat: propagators=440
%%%mzn-stat: failures=202
%%%mzn-stat: propagations=11369
%%%mzn-stat: nogoods=202
%%%mzn-stat: numAtomicConstraintsPropagated=0
%%%mzn-stat: allDifferentNumber1PropagationsTotal=1266
%%%mzn-stat: allDifferentNumber1PropagationsThatFoundConflict=9
%%%mzn-stat: allDifferentNumber1PropagationsThatPruned=819
%%%mzn-stat: allDifferentNumber1TotalValuesPruned=3194
%%%mzn-stat: allDifferentNumber1TotalHallSetSizeConflict=66
%%%mzn-stat: allDifferentNumber1NumberOfConflicts=9
%%%mzn-stat: allDifferentNumber1MaxHallSetSizeConflict=16
%%%mzn-stat: allDifferentNumber1TotalPruningHallSetSize=13824
%%%mzn-stat: allDifferentNumber1NumberOfPruningExplanations=3194
%%%mzn-stat: allDifferentNumber1MaxPruningHallSetSize=42
%%%mzn-stat: allDifferentNumber1TotalFixedEdgesAtConflict=325
%%%mzn-stat: allDifferentNumber1TotalVarsInvolvedInPruning=2724
%%%mzn-stat: allDifferentNumber1MaxValuesPrunedFromSingleVar=5
%%%mzn-stat: allDifferentNumber1TotalSccSizeAtPruning=7415
%%%mzn-stat: allDifferentNumber1NumberOfSccPruningCalls=819
%%%mzn-stat: circuitNumber2PropagationsThatFoundConflict=172
%%%mzn-stat: circuitNumber2TotalFixedEdgesAtConflict=7054
%%%mzn-stat: circuitNumber2NumberOfConflicts=172
%%%mzn-stat: circuitNumber2PropagationsThatPruned=217
%%%mzn-stat: circuitNumber2PropagationsTotal=806
%%%mzn-stat: AverageConflictSize=19.237623762376238
%%%mzn-stat: NumUnitNogoodsLearned=0
%%%mzn-stat: AverageLearnedNogoodLength=29.38118811881188
%%%mzn-stat: AverageBacktrackAmount=0
%%%mzn-stat: AverageLbd=18.856435643564357
%%%mzn-stat: 2AutonomousSearchNumBackupCalled=773
%%%mzn-stat: 2AutonomousSearchNumPredicatesRemoved=0
%%%mzn-stat: 2AutonomousSearchNumCalls=776
%%%mzn-stat: 2AutonomousSearchNumPredicatesAdded=3397
%%%mzn-stat: 2AutonomousSearchAverageSizeOfHeap=5.559278350515464
%%%mzn-stat: 2AutonomousSearchNumAssignedPredicatesEncountered=4314
%%%mzn-stat-end
maxleg = 331;
succ = array1d(1..50,[2, 12, 5, 6, 45, 3, 11, 4, 8, 14, 9, 13, 28, 19, 38, 15, 32, 16, 23, 24, 33, 18, 40, 35, 41, 27, 29, 46, 37, 25, 50, 20, 36, 39, 31, 1, 44, 7, 47, 49, 22, 10, 42, 21, 48, 43, 17, 26, 34, 30]);
% time elapsed: 3.27 s
----------
%%%mzn-stat: initTime=0.006562942
%%%mzn-stat: objective=305
%%%mzn-stat: nodes=1386
%%%mzn-stat: restarts=0
%%%mzn-stat: peakDepth=297
%%%mzn-stat: solveTime=0.103716148
%%%mzn-stat: variables=651
%%%mzn-stat: propagators=440
%%%mzn-stat: failures=205
%%%mzn-stat: propagations=12511
%%%mzn-stat: nogoods=205
%%%mzn-stat: numAtomicConstraintsPropagated=0
%%%mzn-stat: allDifferentNumber1PropagationsTotal=1382
%%%mzn-stat: allDifferentNumber1PropagationsThatFoundConflict=10
%%%mzn-stat: allDifferentNumber1PropagationsThatPruned=883
%%%mzn-stat: allDifferentNumber1TotalValuesPruned=3420
%%%mzn-stat: allDifferentNumber1TotalHallSetSizeConflict=69
%%%mzn-stat: allDifferentNumber1NumberOfConflicts=10
%%%mzn-stat: allDifferentNumber1MaxHallSetSizeConflict=16
%%%mzn-stat: allDifferentNumber1TotalPruningHallSetSize=14693
%%%mzn-stat: allDifferentNumber1NumberOfPruningExplanations=3420
%%%mzn-stat: allDifferentNumber1MaxPruningHallSetSize=43
%%%mzn-stat: allDifferentNumber1TotalFixedEdgesAtConflict=370
%%%mzn-stat: allDifferentNumber1TotalVarsInvolvedInPruning=2923
%%%mzn-stat: allDifferentNumber1MaxValuesPrunedFromSingleVar=5
%%%mzn-stat: allDifferentNumber1TotalSccSizeAtPruning=7992
%%%mzn-stat: allDifferentNumber1NumberOfSccPruningCalls=883
%%%mzn-stat: circuitNumber2PropagationsThatFoundConflict=173
%%%mzn-stat: circuitNumber2TotalFixedEdgesAtConflict=7090
%%%mzn-stat: circuitNumber2NumberOfConflicts=173
%%%mzn-stat: circuitNumber2PropagationsThatPruned=225
%%%mzn-stat: circuitNumber2PropagationsTotal=870
%%%mzn-stat: AverageConflictSize=19.048780487804876
%%%mzn-stat: NumUnitNogoodsLearned=0
%%%mzn-stat: AverageLearnedNogoodLength=29.11219512195122
%%%mzn-stat: AverageBacktrackAmount=0
%%%mzn-stat: AverageLbd=18.678048780487806
%%%mzn-stat: 2AutonomousSearchNumBackupCalled=1012
%%%mzn-stat: 2AutonomousSearchNumPredicatesRemoved=0
%%%mzn-stat: 2AutonomousSearchNumCalls=1016
%%%mzn-stat: 2AutonomousSearchNumPredicatesAdded=3585
%%%mzn-stat: 2AutonomousSearchAverageSizeOfHeap=5.801181102362205
%%%mzn-stat: 2AutonomousSearchNumAssignedPredicatesEncountered=5894
%%%mzn-stat-end
maxleg = 305;
succ = array1d(1..50,[2, 12, 5, 6, 45, 7, 11, 4, 8, 14, 15, 13, 28, 19, 38, 18, 32, 22, 23, 10, 30, 27, 40, 20, 29, 16, 41, 46, 37, 50, 1, 47, 36, 39, 24, 21, 44, 3, 17, 49, 25, 35, 42, 33, 48, 43, 9, 26, 34, 31]);
% time elapsed: 3.28 s
----------
==========
% time elapsed: 3.28 s
%%%mzn-stat: initTime=0.006562942
%%%mzn-stat: objective=305
%%%mzn-stat: nodes=1400
%%%mzn-stat: restarts=0
%%%mzn-stat: peakDepth=297
%%%mzn-stat: solveTime=0.105429583
%%%mzn-stat: variables=651
%%%mzn-stat: propagators=440
%%%mzn-stat: failures=211
%%%mzn-stat: propagations=12777
%%%mzn-stat: nogoods=211
%%%mzn-stat: numAtomicConstraintsPropagated=0
%%%mzn-stat: allDifferentNumber1PropagationsTotal=1414
%%%mzn-stat: allDifferentNumber1PropagationsThatFoundConflict=10
%%%mzn-stat: allDifferentNumber1PropagationsThatPruned=901
%%%mzn-stat: allDifferentNumber1TotalValuesPruned=3492
%%%mzn-stat: allDifferentNumber1TotalHallSetSizeConflict=69
%%%mzn-stat: allDifferentNumber1NumberOfConflicts=10
%%%mzn-stat: allDifferentNumber1MaxHallSetSizeConflict=16
%%%mzn-stat: allDifferentNumber1TotalPruningHallSetSize=14771
%%%mzn-stat: allDifferentNumber1NumberOfPruningExplanations=3492
%%%mzn-stat: allDifferentNumber1MaxPruningHallSetSize=43
%%%mzn-stat: allDifferentNumber1TotalFixedEdgesAtConflict=370
%%%mzn-stat: allDifferentNumber1TotalVarsInvolvedInPruning=2995
%%%mzn-stat: allDifferentNumber1MaxValuesPrunedFromSingleVar=5
%%%mzn-stat: allDifferentNumber1TotalSccSizeAtPruning=8016
%%%mzn-stat: allDifferentNumber1NumberOfSccPruningCalls=901
%%%mzn-stat: circuitNumber2PropagationsThatFoundConflict=179
%%%mzn-stat: circuitNumber2TotalFixedEdgesAtConflict=7127
%%%mzn-stat: circuitNumber2NumberOfConflicts=179
%%%mzn-stat: circuitNumber2PropagationsThatPruned=225
%%%mzn-stat: circuitNumber2PropagationsTotal=888
%%%mzn-stat: AverageConflictSize=18.620853080568722
%%%mzn-stat: NumUnitNogoodsLearned=1
%%%mzn-stat: AverageLearnedNogoodLength=28.43127962085308
%%%mzn-stat: AverageBacktrackAmount=0
%%%mzn-stat: AverageLbd=18.208530805687204
%%%mzn-stat: 2AutonomousSearchNumBackupCalled=1012
%%%mzn-stat: 2AutonomousSearchNumPredicatesRemoved=0
%%%mzn-stat: 2AutonomousSearchNumCalls=1016
%%%mzn-stat: 2AutonomousSearchNumPredicatesAdded=3898
%%%mzn-stat: 2AutonomousSearchAverageSizeOfHeap=5.801181102362205
%%%mzn-stat: 2AutonomousSearchNumAssignedPredicatesEncountered=5894
%%%mzn-stat-end
